RT is False
Default write of storage_offers_DA.csv just to have a file (but constraint should be inactive)
Reading model...
...model read.
creating competitive generators file...
...competitive generators recorded.
Loading data...
.. day-ahead data with real-time VRE data read.
Compiling instance...
...instance created.
Creating Offer Mitigation (model will solve as dispatch if TRUE)...
NOTE: storage offers will not be mitigated
...storage offer mitigation file created
Converting model to MPEC...
...converted
NOTE: initial MIP solve with only storage competitive to get feasible solution
Solving...

Welcome to IBM(R) ILOG(R) CPLEX(R) Interactive Optimizer 12.8.0.0
  with Simplex, Mixed Integer & Barrier Optimizers
5725-A06 5725-A29 5724-Y48 5724-Y49 5724-Y54 5724-Y55 5655-Y21
Copyright IBM Corp. 1988, 2017.  All Rights Reserved.

Type 'help' for a list of available commands.
Type 'help' followed by a command name for more
information on commands.

CPLEX> Logfile 'cplex.log' closed.
Logfile 'C:\Users\llavi\Desktop\test919\logs\tmpzso2t7z5.cplex.log' open.
CPLEX> New value for parallel optimization mode: -1
CPLEX> New value for mixed integer optimality gap tolerance: 0.01
CPLEX> New value for integrality tolerance: 1e-09
CPLEX> New value for feasibility tolerance: 0.01
CPLEX> New value for deterministic time limit in ticks: 75000
CPLEX> Problem 'C:\Users\llavi\Desktop\test919\logs\tmpglq65r85.pyomo.lp' read.
Read time = 0.36 sec. (13.50 ticks)
CPLEX> Problem name         : C:\Users\llavi\Desktop\test919\logs\tmpglq65r85.pyomo.lp
Objective sense      : Maximize
Variables            :   54021  [Nneg: 1,  Box: 22008,  Free: 4464,
                                 Binary: 27548]
Objective nonzeros   :    8979
Linear constraints   :  123829  [Less: 41554,  Greater: 59512,  Equal: 22763]
  Nonzeros           :  300592
  RHS nonzeros       :   67900

Variables            : Min LB: -5000.000        Max UB: 1000000.       
Objective nonzeros   : Min   : 0.4083333        Max   : 722.0000       
Linear constraints   :
  Nonzeros           : Min   : 0.001000000      Max   : 1000000.       
  RHS nonzeros       : Min   : 0.4083333        Max   : 1000000.       
CPLEX> CPXPARAM_Simplex_Tolerances_Feasibility          0.01
CPXPARAM_Parallel                                -1
CPXPARAM_DetTimeLimit                            75000
CPXPARAM_MIP_Tolerances_MIPGap                   0.01
CPXPARAM_MIP_Tolerances_Integrality              1.0000000000000001e-09
Tried aggregator 3 times.
MIP Presolve eliminated 89361 rows and 19253 columns.
MIP Presolve added 3393 rows and 0 columns.
MIP Presolve modified 23836 coefficients.
Aggregator did 13033 substitutions.
Reduced MIP has 24828 rows, 21179 columns, and 70872 nonzeros.
Reduced MIP has 8379 binaries, 0 generals, 0 SOSs, and 0 indicators.
Presolve time = 0.31 sec. (169.86 ticks)
Probing fixed 384 vars, tightened 2781 bounds.
Probing time = 3.91 sec. (882.51 ticks)
Tried aggregator 2 times.
MIP Presolve eliminated 863 rows and 768 columns.
MIP Presolve modified 2189 coefficients.
Aggregator did 44 substitutions.
Reduced MIP has 23921 rows, 20367 columns, and 68246 nonzeros.
Reduced MIP has 7995 binaries, 0 generals, 0 SOSs, and 0 indicators.
Presolve time = 0.16 sec. (54.34 ticks)
Probing time = 0.08 sec. (15.58 ticks)
Clique table members: 6348.
MIP emphasis: balance optimality and feasibility.
MIP search method: dynamic search.
Parallel mode: opportunistic, using up to 4 threads.
Root relaxation solution time = 0.89 sec. (604.59 ticks)

        Nodes                                         Cuts/
   Node  Left     Objective  IInf  Best Integer    Best Bound    ItCnt     Gap

      0     0     2413.1244   963                   2413.1244     4378         
      0     0     2412.8671   753                   Cuts: 726     4676         
      0     0     2412.5745   649                   Cuts: 525     4856         
      0     0     2412.2917   568                   Cuts: 325     4981         
      0     0     2412.2917   539                   Cuts: 121     5049         
      0     0     2412.2917   531                   Cuts: 134     5074         
      0     0     2412.2917   528                    Cuts: 62     5085         
      0     4     2406.5317    50                   2411.0354     5089         
Elapsed time = 22.88 sec. (6304.98 ticks, tree = 0.03 MB, solutions = 0)
    102    48     1151.7387    25                   2409.7823     6862         
    176   110     1163.0527    21                   2409.7823     7371         
    302   191     2340.3090     6                   2409.7823     7567         
    374   308     1969.9947     2                   2409.7823     7941         
    434   333      908.8250     1                   2409.7823     8090         
    502   405      908.8250     1                   2409.7823     9078         
    581   468    infeasible                         2409.7823    10460         
    643   484     1972.0983     7                   2409.7790    10675         
    693   521     1535.6698     5                   2406.8180    12091         
    975   768    infeasible                         2406.8180    15604         
Elapsed time = 28.81 sec. (9429.13 ticks, tree = 16.40 MB, solutions = 0)
   1124   822     2259.3536     6                   2369.8188    16295         
*  1135   840      integral     0     2200.8267     2369.8188    16489    7.68%
*  1162   292      integral     0     2210.2372     2369.8188    16640    7.22%
*  1163   292      integral     0     2210.2372     2369.8188    16720    7.22%
   1353   380     2332.4095     3     2210.2372     2369.0491    17162    7.19%
   1516   477     2210.3736     2     2210.2372     2369.0491    17684    7.19%
   1610   510        cutoff           2210.2372     2369.0491    17768    7.19%
   1690   530        cutoff           2210.2372     2369.0491    17851    7.19%
   1805   574        cutoff           2210.2372     2369.0491    18115    7.19%
   1899   582     2340.1635     2     2210.2372     2369.0491    18146    7.19%
   1951   599     2280.5484     1     2210.2372     2369.0491    18301    7.19%
   2070   602     2210.3370     2     2210.2372     2369.0491    18396    7.19%
   2426   701     2230.0447     3     2210.2372     2369.0491    20038    7.19%
Elapsed time = 44.50 sec. (19181.09 ticks, tree = 12.37 MB, solutions = 3)
   2698   800     2287.7703     1     2210.2372     2368.1840    20727    7.15%
   2990   996     2259.5147     3     2210.2372     2360.4804    21753    6.80%
   3165  1148     2316.1604     2     2210.2372     2360.4804    22415    6.80%
   3276  1211     2292.8899     4     2210.2372     2360.4804    22726    6.80%
   3481  1238     2243.0911     5     2210.2372     2360.4804    22963    6.80%

GUB cover cuts applied:  2
Clique cuts applied:  13
Cover cuts applied:  9
Implied bound cuts applied:  35
Flow cuts applied:  157
Mixed integer rounding cuts applied:  29
Gomory fractional cuts applied:  59

Root node processing (before b&c):
  Real time             =   22.39 sec. (6254.44 ticks)
Parallel b&c, 4 threads:
  Real time             =   38.95 sec. (20348.69 ticks)
  Sync time (average)   =    0.13 sec.
  Wait time (average)   =    0.02 sec.
                          ------------
Total (root+branch&cut) =   61.34 sec. (26603.13 ticks)

Solution pool: 3 solutions saved.

MIP - Integer optimal, tolerance (0.01/1e-06):  Objective =  2.2102371995e+03
Current MIP best bound =  2.2322294079e+03 (gap = 21.9922, 1.00%)
Solution time =   61.34 sec.  Iterations = 28786  Nodes = 3542 (1337)
Deterministic time = 26603.28 ticks  (433.68 ticks/sec)

CPLEX> Incumbent solution written to file 'C:\Users\llavi\Desktop\test919\logs\tmpetw_p61d.cplex.sol'.
CPLEX> NOTE: no warmstart specified for MIP iteration, default behavior is true
NOTE: resolving with all competitive generators using storage-only solution to warmstart
Solving...

Welcome to IBM(R) ILOG(R) CPLEX(R) Interactive Optimizer 12.8.0.0
  with Simplex, Mixed Integer & Barrier Optimizers
5725-A06 5725-A29 5724-Y48 5724-Y49 5724-Y54 5724-Y55 5655-Y21
Copyright IBM Corp. 1988, 2017.  All Rights Reserved.

Type 'help' for a list of available commands.
Type 'help' followed by a command name for more
information on commands.

CPLEX> Logfile 'cplex.log' closed.
Logfile 'C:\Users\llavi\Desktop\test919\logs\tmp4wmha4dn.cplex.log' open.
CPLEX> New value for parallel optimization mode: -1
CPLEX> New value for mixed integer optimality gap tolerance: 0.01
CPLEX> New value for integrality tolerance: 1e-09
CPLEX> New value for feasibility tolerance: 0.01
CPLEX> New value for deterministic time limit in ticks: 75000
CPLEX> Problem 'C:\Users\llavi\Desktop\test919\logs\tmpigta1y56.pyomo.lp' read.
Read time = 0.33 sec. (13.52 ticks)
CPLEX> MIP start file 'C:\Users\llavi\Desktop\test919\logs\tmpk224cgxv.cplex.mst' read.
CPLEX> Problem name         : C:\Users\llavi\Desktop\test919\logs\tmpigta1y56.pyomo.lp
Objective sense      : Maximize
Variables            :   54741  [Nneg: 1,  Box: 22728,  Free: 4464,
                                 Binary: 27548]
Objective nonzeros   :    9699
Linear constraints   :  123829  [Less: 41554,  Greater: 59512,  Equal: 22763]
  Nonzeros           :  300592
  RHS nonzeros       :   67900

Variables            : Min LB: -5000.000        Max UB: 1000000.       
Objective nonzeros   : Min   : 0.4083333        Max   : 722.0000       
Linear constraints   :
  Nonzeros           : Min   : 0.001000000      Max   : 1000000.       
  RHS nonzeros       : Min   : 0.4083333        Max   : 1000000.       
CPLEX> CPXPARAM_Simplex_Tolerances_Feasibility          0.01
CPXPARAM_Parallel                                -1
CPXPARAM_DetTimeLimit                            75000
CPXPARAM_MIP_Tolerances_MIPGap                   0.01
CPXPARAM_MIP_Tolerances_Integrality              1.0000000000000001e-09
Warning:  No solution found from 1 MIP starts.
Retaining values of one MIP start for possible repair.
Tried aggregator 3 times.
MIP Presolve eliminated 89361 rows and 19973 columns.
MIP Presolve added 3393 rows and 0 columns.
MIP Presolve modified 23836 coefficients.
Aggregator did 13033 substitutions.
Reduced MIP has 24828 rows, 21179 columns, and 70872 nonzeros.
Reduced MIP has 8379 binaries, 0 generals, 0 SOSs, and 0 indicators.
Presolve time = 0.28 sec. (170.23 ticks)
Probing fixed 384 vars, tightened 2781 bounds.
Probing time = 3.34 sec. (882.51 ticks)
Tried aggregator 2 times.
MIP Presolve eliminated 863 rows and 768 columns.
MIP Presolve modified 2189 coefficients.
Aggregator did 44 substitutions.
Reduced MIP has 23921 rows, 20367 columns, and 68246 nonzeros.
Reduced MIP has 7995 binaries, 0 generals, 0 SOSs, and 0 indicators.
Presolve time = 0.13 sec. (54.31 ticks)
Probing time = 0.06 sec. (15.58 ticks)
Clique table members: 6348.
MIP emphasis: balance optimality and feasibility.
MIP search method: dynamic search.
Parallel mode: opportunistic, using up to 4 threads.
Root relaxation solution time = 0.75 sec. (587.47 ticks)

        Nodes                                         Cuts/
   Node  Left     Objective  IInf  Best Integer    Best Bound    ItCnt     Gap

      0     0     2413.1244   964                   2413.1244     4171         
      0     0     2412.8671   746                   Cuts: 749     4487         
      0     0     2412.5745   653                   Cuts: 526     4692         
      0     0     2412.2917   573                   Cuts: 338     4827         
      0     0     2412.2917   542                   Cuts: 120     4904         
      0     0     2412.2917   528                   Cuts: 139     4940         
      0     0     2412.2917   530                    Cuts: 67     4957         
Repair heuristic found nothing.
      0     4     2406.5317    49                   2411.0354     4961         
Elapsed time = 25.91 sec. (9474.14 ticks, tree = 0.03 MB, solutions = 0)
    103    72     2353.8687    29                   2409.7823     5602         
    201   132     2332.4607    20                   2409.7823     5766         
    284   209      475.9109     9                   2409.7823     5965         
    365   308     2337.2814     1                   2409.7823     6222         
    404   349     2243.8379     5                   2409.7823     6326         
    476   376      978.5083     3                   2409.7823     6617         
    555   457   -24794.3697     4                   2409.7823     7427         
    633   525   -29822.0774     3                   2409.7823     8427         
    719   597    infeasible                         2409.7823    10655         
   1001   800     2327.9547     5                   2409.7823    15579         
Elapsed time = 30.80 sec. (12591.10 ticks, tree = 12.75 MB, solutions = 0)
   1195   957     2246.8885     6                   2390.2274    16865         
   1308  1000    infeasible                         2390.2274    17293         
*  1386  1029      integral     0     2163.2253     2390.2274    17639   10.49%
*  1413  1046      integral     0     2182.4989     2390.2274    17896    9.52%
   1508   272     2386.1763     5     2182.4989     2390.2274    18220    9.52%
   1798    86     2389.4577    26     2358.0061     2390.2274    18684    1.37%

Clique cuts applied:  30
Implied bound cuts applied:  37
Flow cuts applied:  190
Mixed integer rounding cuts applied:  14
Gomory fractional cuts applied:  56

Root node processing (before b&c):
  Real time             =   25.64 sec. (9443.63 ticks)
Parallel b&c, 4 threads:
  Real time             =   10.73 sec. (7180.14 ticks)
  Sync time (average)   =    0.30 sec.
  Wait time (average)   =    0.02 sec.
                          ------------
Total (root+branch&cut) =   36.38 sec. (16623.77 ticks)

Solution pool: 4 solutions saved.

MIP - Integer optimal, tolerance (0.01/1e-06):  Objective =  2.3580061359e+03
Current MIP best bound =  2.3756051884e+03 (gap = 17.5991, 0.75%)
Solution time =   36.38 sec.  Iterations = 18887  Nodes = 1853 (29)
Deterministic time = 16623.92 ticks  (457.02 ticks/sec)

CPLEX> Incumbent solution written to file 'C:\Users\llavi\Desktop\test919\logs\tmp33p1gjk1.cplex.sol'.
CPLEX> Exporting results... 
